language Essence 1.3

letting bot_end be [716, 711, 13, 0, 11, 720, 715, 12, 24, 36, 39, 14, 2, 15, 727, 705, 687, 41, 20; int(1..19)]
letting bot_start be [24, 39, 697, 696, 719, 0, 89, 694, 720, 704, 699, 686, 701, 687, 19, 37, 15, 714, 702; int(1..19)]
letting buffer_col be 2
letting buffer_row be 2
letting corridor_size be 1
letting n_shelves_col be 3
letting n_shelves_row be 26
letting shelf_col_size be 2
letting shelf_row_size be 1
